15
1 0 3
2 0 3
2 1 2
3 0 4
3 1 2
3 2 2
4 0 5
4 1 2
4 2 2
4 3 5
5 0 4
5 1 1
5 2 2
5 3 2
5 4 1
6 0 5
6 1 4
6 2 3
6 3 1
6 4 3
6 5 2
7 0 4
7 1 5
7 2 4
7 3 4
7 4 4
7 5 4
7 6 4
8 0 3
8 1 2
8 2 3
8 3 1
8 4 5
8 5 3
8 6 5
8 7 4
9 0 3
9 1 1
9 2 5
9 3 2
9 4 1
9 5 4
9 6 4
9 7 5
9 8 5
10 0 4
10 1 4
10 2 2
10 3 5
10 4 4
10 5 2
10 6 1
10 7 1
10 8 4
10 9 4
11 0 3
11 1 3
11 2 1
11 3 2
11 4 4
11 5 1
11 6 5
11 7 3
11 8 2
11 9 2
11 10 2
12 0 4
12 1 5
12 2 2
12 3 1
12 4 3
12 5 2
12 6 1
12 7 4
12 8 2
12 9 5
12 10 4
12 11 4
13 0 1
13 1 5
13 2 4
13 3 2
13 4 3
13 5 2
13 6 1
13 7 2
13 8 1
13 9 5
13 10 2
13 11 1
13 12 1
14 0 1
14 1 1
14 2 5
14 3 2
14 4 4
14 5 2
14 6 1
14 7 5
14 8 1
14 9 4
14 10 1
14 11 2
14 12 2
14 13 5
